
Gurobi 9.5.2 (mac64[arm]) logging started Wed Apr 19 12:20:39 2023

Set parameter LogFile to value "Java/output/pure_mip/scenario_seed_1_nJob_20_machineCount_1/mip_increment_1/log.txt"
Gurobi Optimizer version 9.5.2 build v9.5.2rc0 (mac64[arm])
Thread count: 8 physical cores, 8 logical processors, using up to 8 threads
Optimize a model with 916 rows, 8160 columns and 85078 nonzeros
Model fingerprint: 0x5fa955a8
Variable types: 0 continuous, 8160 integer (8160 binary)
Coefficient statistics:
  Matrix range     [1e+00, 2e+02]
  Objective range  [4e+00, 2e+06]
  Bounds range     [1e+00, 1e+00]
  RHS range        [1e+00, 1e+00]
Presolve removed 69 rows and 1280 columns
Presolve time: 0.11s
Presolved: 847 rows, 6880 columns, 70433 nonzeros
Variable types: 0 continuous, 6880 integer (6870 binary)

Root relaxation: objective 4.819724e+03, 5187 iterations, 0.25 seconds (0.54 work units)

    Nodes    |    Current Node    |     Objective Bounds      |     Work
 Expl Unexpl |  Obj  Depth IntInf | Incumbent    BestBd   Gap | It/Node Time

     0     0 4819.72434    0  195          - 4819.72434      -     -    0s
     0     0 4929.11289    0  284          - 4929.11289      -     -    0s
     0     0 4948.42421    0  259          - 4948.42421      -     -    1s
     0     0 4948.57572    0  260          - 4948.57572      -     -    1s
     0     0 5005.16274    0  335          - 5005.16274      -     -    1s
     0     0 5011.59793    0  349          - 5011.59793      -     -    1s
     0     0 5013.24842    0  343          - 5013.24842      -     -    1s
     0     0 5013.50988    0  329          - 5013.50988      -     -    1s
     0     0 5013.51271    0  328          - 5013.51271      -     -    1s
     0     0 5155.85800    0  335          - 5155.85800      -     -    2s
     0     0 5173.98369    0  335          - 5173.98369      -     -    2s
     0     0 5176.04228    0  352          - 5176.04228      -     -    2s
     0     0 5176.63705    0  328          - 5176.63705      -     -    2s
     0     0 5176.81841    0  340          - 5176.81841      -     -    2s
     0     0 5176.89309    0  357          - 5176.89309      -     -    2s
     0     0 5397.63039    0  322          - 5397.63039      -     -    3s
H    0     0                    176879.00000 5532.68531  96.9%     -    3s
     0     0 5532.68531    0  366 176879.000 5532.68531  96.9%     -    3s
     0     0 5541.41302    0  412 176879.000 5541.41302  96.9%     -    3s
     0     0 5544.92108    0  383 176879.000 5544.92108  96.9%     -    3s
     0     0 5545.03530    0  395 176879.000 5545.03530  96.9%     -    3s
     0     0 5599.15728    0  369 176879.000 5599.15728  96.8%     -    3s
H    0     0                    174428.00000 5599.15728  96.8%     -    3s
H    0     0                    174360.00000 5599.15728  96.8%     -    3s
     0     0 5613.33096    0  385 174360.000 5613.33096  96.8%     -    4s
     0     0 5617.50485    0  390 174360.000 5617.50485  96.8%     -    4s
     0     0 5617.61915    0  392 174360.000 5617.61915  96.8%     -    4s
     0     0 5783.13683    0  358 174360.000 5783.13683  96.7%     -    4s
H    0     0                    173555.00000 5783.13683  96.7%     -    4s
     0     0 5921.22365    0  357 173555.000 5921.22365  96.6%     -    4s
     0     0 5974.91051    0  370 173555.000 5974.91051  96.6%     -    4s
     0     0 5976.04918    0  371 173555.000 5976.04918  96.6%     -    4s
     0     0 5976.90674    0  381 173555.000 5976.90674  96.6%     -    4s
     0     0 5976.90938    0  382 173555.000 5976.90938  96.6%     -    4s
H    0     0                    157974.00000 6244.33106  96.0%     -    5s
     0     0 6244.33106    0  436 157974.000 6244.33106  96.0%     -    5s
H    0     0                    157971.00000 6244.33106  96.0%     -    5s
H    0     0                    154749.00000 6244.33106  96.0%     -    5s
     0     0 6261.95853    0  431 154749.000 6261.95853  96.0%     -    5s
     0     0 6265.98683    0  432 154749.000 6265.98683  96.0%     -    5s
     0     0 6267.61681    0  435 154749.000 6267.61681  95.9%     -    5s
     0     0 6268.90534    0  438 154749.000 6268.90534  95.9%     -    5s
     0     0 6269.28679    0  453 154749.000 6269.28679  95.9%     -    5s
     0     0 6387.94030    0  436 154749.000 6387.94030  95.9%     -    6s
H    0     0                    154745.00000 6387.94030  95.9%     -    6s
H    0     0                    152497.00000 6387.94030  95.8%     -    6s
H    0     0                    149820.00000 6387.94030  95.7%     -    6s
     0     0 6402.96635    0  483 149820.000 6402.96635  95.7%     -    6s
     0     0 6404.11728    0  486 149820.000 6404.11728  95.7%     -    6s
     0     0 6502.19065    0  454 149820.000 6502.19065  95.7%     -    6s
H    0     0                    149322.00000 6502.19065  95.6%     -    6s
     0     0 6514.44186    0  486 149322.000 6514.44186  95.6%     -    6s
     0     0 6517.11691    0  506 149322.000 6517.11691  95.6%     -    6s
     0     0 6517.88862    0  516 149322.000 6517.88862  95.6%     -    6s
     0     0 6581.78271    0  482 149322.000 6581.78271  95.6%     -    7s
H    0     0                    148994.00000 6581.78271  95.6%     -    7s
     0     0 6602.08808    0  496 148994.000 6602.08808  95.6%     -    7s
     0     0 6605.00258    0  507 148994.000 6605.00258  95.6%     -    7s
     0     0 6605.36179    0  499 148994.000 6605.36179  95.6%     -    7s
     0     0 6805.32983    0  482 148994.000 6805.32983  95.4%     -    7s
H    0     0                    148661.00000 6805.32983  95.4%     -    7s
     0     0 6858.14150    0  478 148661.000 6858.14150  95.4%     -    7s
H    0     0                    84850.000000 6866.96913  91.9%     -    7s
H    0     0                    80050.000000 6866.96913  91.4%     -    8s
     0     0 6866.96913    0  489 80050.0000 6866.96913  91.4%     -    8s
     0     0 6868.55096    0  496 80050.0000 6868.55096  91.4%     -    8s
     0     0 7027.74677    0  487 80050.0000 7027.74677  91.2%     -    8s
     0     0 7033.07441    0  484 80050.0000 7033.07441  91.2%     -    8s
     0     0 7033.38556    0  490 80050.0000 7033.38556  91.2%     -    8s
H    0     0                    56690.000000 7068.60284  87.5%     -    8s
     0     0 7068.60284    0  511 56690.0000 7068.60284  87.5%     -    8s
H    0     0                    26203.000000 7068.60284  73.0%     -    8s
     0     0 7073.40736    0  539 26203.0000 7073.40736  73.0%     -    9s
     0     0 7076.86989    0  540 26203.0000 7076.86989  73.0%     -    9s
     0     0 7078.12982    0  547 26203.0000 7078.12982  73.0%     -    9s
     0     0 7207.28164    0  528 26203.0000 7207.28164  72.5%     -    9s
     0     0 7210.87046    0  537 26203.0000 7210.87046  72.5%     -    9s
     0     0 7211.20748    0  539 26203.0000 7211.20748  72.5%     -    9s
H    0     0                    24500.000000 7367.97618  69.9%     -    9s
     0     0 7367.97618    0  485 24500.0000 7367.97618  69.9%     -    9s
     0     0 7379.15517    0  472 24500.0000 7379.15517  69.9%     -    9s
     0     0 7380.81808    0  493 24500.0000 7380.81808  69.9%     -    9s
     0     0 7528.17810    0  484 24500.0000 7528.17810  69.3%     -   10s
H    0     0                    24498.000000 7528.17810  69.3%     -   10s
     0     0 7531.73642    0  513 24498.0000 7531.73642  69.3%     -   10s
     0     0 7532.27683    0  509 24498.0000 7532.27683  69.3%     -   10s
     0     0 7698.16675    0  477 24498.0000 7698.16675  68.6%     -   10s
     0     0 7704.26339    0  472 24498.0000 7704.26339  68.6%     -   10s
     0     0 7705.90365    0  486 24498.0000 7705.90365  68.5%     -   10s
     0     0 7767.97163    0  507 24498.0000 7767.97163  68.3%     -   10s
     0     0 7777.12138    0  510 24498.0000 7777.12138  68.3%     -   11s
     0     0 7778.19960    0  522 24498.0000 7778.19960  68.2%     -   11s
     0     0 7915.54239    0  505 24498.0000 7915.54239  67.7%     -   11s
     0     0 7923.28750    0  497 24498.0000 7923.28750  67.7%     -   11s
     0     0 7925.29166    0  498 24498.0000 7925.29166  67.6%     -   11s
     0     0 8001.68422    0  497 24498.0000 8001.68422  67.3%     -   11s
H    0     0                    24187.000000 8001.68422  66.9%     -   11s
     0     0 8005.76808    0  509 24187.0000 8005.76808  66.9%     -   11s
     0     0 8016.62724    0  511 24187.0000 8016.62724  66.9%     -   11s
     0     0 8018.10243    0  522 24187.0000 8018.10243  66.8%     -   11s
     0     0 8048.93080    0  510 24187.0000 8048.93080  66.7%     -   12s
H    0     0                    23625.000000 8048.93080  65.9%     -   12s
     0     0 8060.68123    0  549 23625.0000 8060.68123  65.9%     -   12s
     0     0 8061.66505    0  539 23625.0000 8061.66505  65.9%     -   12s
     0     0 8170.79426    0  525 23625.0000 8170.79426  65.4%     -   12s
H    0     0                    22812.000000 8170.79426  64.2%     -   12s
H    0     0                    20106.000000 8188.82861  59.3%     -   13s
     0     0 8188.82861    0  530 20106.0000 8188.82861  59.3%     -   13s
H    0     0                    18179.000000 8199.35047  54.9%     -   13s
H    0     0                    16076.000000 8199.35047  49.0%     -   13s
     0     0 8199.35047    0  584 16076.0000 8199.35047  49.0%     -   13s
H    0     0                    15347.000000 8199.79096  46.6%     -   13s
     0     0 8199.79096    0  579 15347.0000 8199.79096  46.6%     -   13s
     0     0 8222.02985    0  528 15347.0000 8222.02985  46.4%     -   13s
     0     0 8238.26289    0  558 15347.0000 8238.26289  46.3%     -   13s
     0     0 8239.20134    0  574 15347.0000 8239.20134  46.3%     -   13s
     0     0 8267.56147    0  543 15347.0000 8267.56147  46.1%     -   14s
     0     0 8267.56147    0  175 15347.0000 8267.56147  46.1%     -   14s
H    0     0                    15343.000000 8267.56147  46.1%     -   14s
     0     0 8267.56147    0  305 15343.0000 8267.56147  46.1%     -   15s
     0     0 8267.56147    0  346 15343.0000 8267.56147  46.1%     -   15s
     0     0 8267.56147    0  409 15343.0000 8267.56147  46.1%     -   15s
     0     0 8267.56147    0  452 15343.0000 8267.56147  46.1%     -   15s
     0     0 8307.27201    0  497 15343.0000 8307.27201  45.9%     -   15s
     0     0 8317.51415    0  497 15343.0000 8317.51415  45.8%     -   16s
     0     0 8319.09219    0  499 15343.0000 8319.09219  45.8%     -   16s
     0     0 8319.49352    0  517 15343.0000 8319.49352  45.8%     -   16s
     0     0 8434.28609    0  486 15343.0000 8434.28609  45.0%     -   16s
     0     0 8435.30855    0  495 15343.0000 8435.30855  45.0%     -   16s
     0     0 8554.05338    0  482 15343.0000 8554.05338  44.2%     -   16s
     0     0 8577.39878    0  502 15343.0000 8577.39878  44.1%     -   16s
     0     0 8585.87343    0  509 15343.0000 8585.87343  44.0%     -   16s
     0     0 8587.96760    0  517 15343.0000 8587.96760  44.0%     -   16s
     0     0 8599.99515    0  544 15343.0000 8599.99515  43.9%     -   17s
     0     0 8602.91227    0  532 15343.0000 8602.91227  43.9%     -   17s
     0     0 8719.88494    0  568 15343.0000 8719.88494  43.2%     -   17s
     0     0 8724.85710    0  555 15343.0000 8724.85710  43.1%     -   17s
     0     0 8726.52774    0  559 15343.0000 8726.52774  43.1%     -   17s
     0     0 8748.41087    0  575 15343.0000 8748.41087  43.0%     -   17s
     0     0 8748.41087    0  569 15343.0000 8748.41087  43.0%     -   17s
     0     2 8748.60657    0  567 15343.0000 8748.60657  43.0%     -   18s
    30    34 9048.50939    5  442 15343.0000 8949.05751  41.7%  1812   20s
H   34    34                    14892.000000 8949.05751  39.9%  1677   20s
H   35    34                    13191.000000 8949.05751  32.2%  1640   20s
H   64    60                    12723.000000 8949.05751  29.7%  1495   21s
H   69    60                    12692.000000 8949.05751  29.5%  1416   21s
H  196   124                    11421.000000 8949.05751  21.6%   852   23s
H  263   151                    11078.000000 8975.88797  19.0%   769   24s
H  303   142                    11074.000000 8975.88797  18.9%   725   24s
   309   147 10292.2121    9  356 11074.0000 8975.88797  18.9%   724   25s
H  330   154                    10914.000000 8975.88797  17.8%   719   25s
H  402   162                    10911.000000 9261.96895  15.1%   678   26s
H  409   162                    10898.000000 9261.96895  15.0%   685   26s
H  663   230                    10896.000000 9261.96895  15.0%   601   29s
   765   272 10846.3552    8  334 10896.0000 9403.10360  13.7%   601   30s
  1394   416 infeasible   17      10896.0000 9714.30753  10.8%   543   35s
  2258   488 10371.9031   10  341 10896.0000 10016.7600  8.07%   469   40s
H 2722   500                    10787.000000 10071.0824  6.64%   443   41s
H 2810   464                    10762.000000 10077.6667  6.36%   435   41s
  3626   351 10360.0902   17  341 10762.0000 10267.0567  4.60%   416   45s

Cutting planes:
  Gomory: 2
  Cover: 83
  Clique: 193
  MIR: 206
  StrongCG: 120
  GUB cover: 156
  Inf proof: 2
  Zero half: 26
  RLT: 6

Explored 4917 nodes (1914156 simplex iterations) in 48.07 seconds (128.99 work units)
Thread count was 8 (of 8 available processors)

Solution count 10: 10762 10787 10896 ... 12692

Optimal solution found (tolerance 1.00e-04)
Best objective 1.076200000000e+04, best bound 1.076200000000e+04, gap 0.0000%
